c DIMACS CNF — Option-2 encoding (x_ij + y_it)
c N=5 M=3
p cnf 52 858
1 2 3 0
-1 -2 0
-1 -3 0
-2 -3 0
4 5 6 0
-4 -5 0
-4 -6 0
-5 -6 0
7 8 9 0
-7 -8 0
-7 -9 0
-8 -9 0
10 11 12 0
-10 -11 0
-10 -12 0
-11 -12 0
13 14 15 0
-13 -14 0
-13 -15 0
-14 -15 0
16 17 18 19 20 21 22 23 0
-16 -17 0
-16 -18 0
-16 -19 0
-16 -20 0
-16 -21 0
-16 -22 0
-16 -23 0
-17 -18 0
-17 -19 0
-17 -20 0
-17 -21 0
-17 -22 0
-17 -23 0
-18 -19 0
-18 -20 0
-18 -21 0
-18 -22 0
-18 -23 0
-19 -20 0
-19 -21 0
-19 -22 0
-19 -23 0
-20 -21 0
-20 -22 0
-20 -23 0
-21 -22 0
-21 -23 0
-22 -23 0
24 25 26 27 28 29 30 31 0
-24 -25 0
-24 -26 0
-24 -27 0
-24 -28 0
-24 -29 0
-24 -30 0
-24 -31 0
-25 -26 0
-25 -27 0
-25 -28 0
-25 -29 0
-25 -30 0
-25 -31 0
-26 -27 0
-26 -28 0
-26 -29 0
-26 -30 0
-26 -31 0
-27 -28 0
-27 -29 0
-27 -30 0
-27 -31 0
-28 -29 0
-28 -30 0
-28 -31 0
-29 -30 0
-29 -31 0
-30 -31 0
32 33 34 35 36 37 38 0
-32 -33 0
-32 -34 0
-32 -35 0
-32 -36 0
-32 -37 0
-32 -38 0
-33 -34 0
-33 -35 0
-33 -36 0
-33 -37 0
-33 -38 0
-34 -35 0
-34 -36 0
-34 -37 0
-34 -38 0
-35 -36 0
-35 -37 0
-35 -38 0
-36 -37 0
-36 -38 0
-37 -38 0
39 40 41 42 43 44 45 0
-39 -40 0
-39 -41 0
-39 -42 0
-39 -43 0
-39 -44 0
-39 -45 0
-40 -41 0
-40 -42 0
-40 -43 0
-40 -44 0
-40 -45 0
-41 -42 0
-41 -43 0
-41 -44 0
-41 -45 0
-42 -43 0
-42 -44 0
-42 -45 0
-43 -44 0
-43 -45 0
-44 -45 0
46 47 48 49 50 51 52 0
-46 -47 0
-46 -48 0
-46 -49 0
-46 -50 0
-46 -51 0
-46 -52 0
-47 -48 0
-47 -49 0
-47 -50 0
-47 -51 0
-47 -52 0
-48 -49 0
-48 -50 0
-48 -51 0
-48 -52 0
-49 -50 0
-49 -51 0
-49 -52 0
-50 -51 0
-50 -52 0
-51 -52 0
-1 -16 -4 -24 0
-1 -16 -4 -25 0
-1 -17 -4 -24 0
-1 -17 -4 -25 0
-1 -17 -4 -26 0
-1 -18 -4 -24 0
-1 -18 -4 -25 0
-1 -18 -4 -26 0
-1 -18 -4 -27 0
-1 -19 -4 -24 0
-1 -19 -4 -25 0
-1 -19 -4 -26 0
-1 -19 -4 -27 0
-1 -19 -4 -28 0
-1 -20 -4 -24 0
-1 -20 -4 -25 0
-1 -20 -4 -26 0
-1 -20 -4 -27 0
-1 -20 -4 -28 0
-1 -20 -4 -29 0
-1 -21 -4 -25 0
-1 -21 -4 -26 0
-1 -21 -4 -27 0
-1 -21 -4 -28 0
-1 -21 -4 -29 0
-1 -21 -4 -30 0
-1 -22 -4 -26 0
-1 -22 -4 -27 0
-1 -22 -4 -28 0
-1 -22 -4 -29 0
-1 -22 -4 -30 0
-1 -22 -4 -31 0
-1 -23 -4 -27 0
-1 -23 -4 -28 0
-1 -23 -4 -29 0
-1 -23 -4 -30 0
-1 -23 -4 -31 0
-2 -16 -5 -24 0
-2 -16 -5 -25 0
-2 -17 -5 -24 0
-2 -17 -5 -25 0
-2 -17 -5 -26 0
-2 -18 -5 -24 0
-2 -18 -5 -25 0
-2 -18 -5 -26 0
-2 -18 -5 -27 0
-2 -19 -5 -24 0
-2 -19 -5 -25 0
-2 -19 -5 -26 0
-2 -19 -5 -27 0
-2 -19 -5 -28 0
-2 -20 -5 -24 0
-2 -20 -5 -25 0
-2 -20 -5 -26 0
-2 -20 -5 -27 0
-2 -20 -5 -28 0
-2 -20 -5 -29 0
-2 -21 -5 -25 0
-2 -21 -5 -26 0
-2 -21 -5 -27 0
-2 -21 -5 -28 0
-2 -21 -5 -29 0
-2 -21 -5 -30 0
-2 -22 -5 -26 0
-2 -22 -5 -27 0
-2 -22 -5 -28 0
-2 -22 -5 -29 0
-2 -22 -5 -30 0
-2 -22 -5 -31 0
-2 -23 -5 -27 0
-2 -23 -5 -28 0
-2 -23 -5 -29 0
-2 -23 -5 -30 0
-2 -23 -5 -31 0
-3 -16 -6 -24 0
-3 -16 -6 -25 0
-3 -17 -6 -24 0
-3 -17 -6 -25 0
-3 -17 -6 -26 0
-3 -18 -6 -24 0
-3 -18 -6 -25 0
-3 -18 -6 -26 0
-3 -18 -6 -27 0
-3 -19 -6 -24 0
-3 -19 -6 -25 0
-3 -19 -6 -26 0
-3 -19 -6 -27 0
-3 -19 -6 -28 0
-3 -20 -6 -24 0
-3 -20 -6 -25 0
-3 -20 -6 -26 0
-3 -20 -6 -27 0
-3 -20 -6 -28 0
-3 -20 -6 -29 0
-3 -21 -6 -25 0
-3 -21 -6 -26 0
-3 -21 -6 -27 0
-3 -21 -6 -28 0
-3 -21 -6 -29 0
-3 -21 -6 -30 0
-3 -22 -6 -26 0
-3 -22 -6 -27 0
-3 -22 -6 -28 0
-3 -22 -6 -29 0
-3 -22 -6 -30 0
-3 -22 -6 -31 0
-3 -23 -6 -27 0
-3 -23 -6 -28 0
-3 -23 -6 -29 0
-3 -23 -6 -30 0
-3 -23 -6 -31 0
-1 -18 -7 -32 0
-1 -19 -7 -32 0
-1 -19 -7 -33 0
-1 -20 -7 -32 0
-1 -20 -7 -33 0
-1 -20 -7 -34 0
-1 -21 -7 -32 0
-1 -21 -7 -33 0
-1 -21 -7 -34 0
-1 -21 -7 -35 0
-1 -22 -7 -32 0
-1 -22 -7 -33 0
-1 -22 -7 -34 0
-1 -22 -7 -35 0
-1 -22 -7 -36 0
-1 -23 -7 -32 0
-1 -23 -7 -33 0
-1 -23 -7 -34 0
-1 -23 -7 -35 0
-1 -23 -7 -36 0
-1 -23 -7 -37 0
-2 -18 -8 -32 0
-2 -19 -8 -32 0
-2 -19 -8 -33 0
-2 -20 -8 -32 0
-2 -20 -8 -33 0
-2 -20 -8 -34 0
-2 -21 -8 -32 0
-2 -21 -8 -33 0
-2 -21 -8 -34 0
-2 -21 -8 -35 0
-2 -22 -8 -32 0
-2 -22 -8 -33 0
-2 -22 -8 -34 0
-2 -22 -8 -35 0
-2 -22 -8 -36 0
-2 -23 -8 -32 0
-2 -23 -8 -33 0
-2 -23 -8 -34 0
-2 -23 -8 -35 0
-2 -23 -8 -36 0
-2 -23 -8 -37 0
-3 -18 -9 -32 0
-3 -19 -9 -32 0
-3 -19 -9 -33 0
-3 -20 -9 -32 0
-3 -20 -9 -33 0
-3 -20 -9 -34 0
-3 -21 -9 -32 0
-3 -21 -9 -33 0
-3 -21 -9 -34 0
-3 -21 -9 -35 0
-3 -22 -9 -32 0
-3 -22 -9 -33 0
-3 -22 -9 -34 0
-3 -22 -9 -35 0
-3 -22 -9 -36 0
-3 -23 -9 -32 0
-3 -23 -9 -33 0
-3 -23 -9 -34 0
-3 -23 -9 -35 0
-3 -23 -9 -36 0
-3 -23 -9 -37 0
-1 -16 -10 -39 0
-1 -16 -10 -40 0
-1 -16 -10 -41 0
-1 -17 -10 -39 0
-1 -17 -10 -40 0
-1 -17 -10 -41 0
-1 -17 -10 -42 0
-1 -18 -10 -40 0
-1 -18 -10 -41 0
-1 -18 -10 -42 0
-1 -18 -10 -43 0
-1 -19 -10 -41 0
-1 -19 -10 -42 0
-1 -19 -10 -43 0
-1 -19 -10 -44 0
-1 -20 -10 -42 0
-1 -20 -10 -43 0
-1 -20 -10 -44 0
-1 -20 -10 -45 0
-1 -21 -10 -43 0
-1 -21 -10 -44 0
-1 -21 -10 -45 0
-1 -22 -10 -44 0
-1 -22 -10 -45 0
-1 -23 -10 -45 0
-2 -16 -11 -39 0
-2 -16 -11 -40 0
-2 -16 -11 -41 0
-2 -17 -11 -39 0
-2 -17 -11 -40 0
-2 -17 -11 -41 0
-2 -17 -11 -42 0
-2 -18 -11 -40 0
-2 -18 -11 -41 0
-2 -18 -11 -42 0
-2 -18 -11 -43 0
-2 -19 -11 -41 0
-2 -19 -11 -42 0
-2 -19 -11 -43 0
-2 -19 -11 -44 0
-2 -20 -11 -42 0
-2 -20 -11 -43 0
-2 -20 -11 -44 0
-2 -20 -11 -45 0
-2 -21 -11 -43 0
-2 -21 -11 -44 0
-2 -21 -11 -45 0
-2 -22 -11 -44 0
-2 -22 -11 -45 0
-2 -23 -11 -45 0
-3 -16 -12 -39 0
-3 -16 -12 -40 0
-3 -16 -12 -41 0
-3 -17 -12 -39 0
-3 -17 -12 -40 0
-3 -17 -12 -41 0
-3 -17 -12 -42 0
-3 -18 -12 -40 0
-3 -18 -12 -41 0
-3 -18 -12 -42 0
-3 -18 -12 -43 0
-3 -19 -12 -41 0
-3 -19 -12 -42 0
-3 -19 -12 -43 0
-3 -19 -12 -44 0
-3 -20 -12 -42 0
-3 -20 -12 -43 0
-3 -20 -12 -44 0
-3 -20 -12 -45 0
-3 -21 -12 -43 0
-3 -21 -12 -44 0
-3 -21 -12 -45 0
-3 -22 -12 -44 0
-3 -22 -12 -45 0
-3 -23 -12 -45 0
-1 -19 -13 -46 0
-1 -20 -13 -46 0
-1 -20 -13 -47 0
-1 -21 -13 -46 0
-1 -21 -13 -47 0
-1 -21 -13 -48 0
-1 -22 -13 -46 0
-1 -22 -13 -47 0
-1 -22 -13 -48 0
-1 -22 -13 -49 0
-1 -23 -13 -46 0
-1 -23 -13 -47 0
-1 -23 -13 -48 0
-1 -23 -13 -49 0
-1 -23 -13 -50 0
-2 -19 -14 -46 0
-2 -20 -14 -46 0
-2 -20 -14 -47 0
-2 -21 -14 -46 0
-2 -21 -14 -47 0
-2 -21 -14 -48 0
-2 -22 -14 -46 0
-2 -22 -14 -47 0
-2 -22 -14 -48 0
-2 -22 -14 -49 0
-2 -23 -14 -46 0
-2 -23 -14 -47 0
-2 -23 -14 -48 0
-2 -23 -14 -49 0
-2 -23 -14 -50 0
-3 -19 -15 -46 0
-3 -20 -15 -46 0
-3 -20 -15 -47 0
-3 -21 -15 -46 0
-3 -21 -15 -47 0
-3 -21 -15 -48 0
-3 -22 -15 -46 0
-3 -22 -15 -47 0
-3 -22 -15 -48 0
-3 -22 -15 -49 0
-3 -23 -15 -46 0
-3 -23 -15 -47 0
-3 -23 -15 -48 0
-3 -23 -15 -49 0
-3 -23 -15 -50 0
-4 -24 -7 -32 0
-4 -25 -7 -32 0
-4 -25 -7 -33 0
-4 -26 -7 -32 0
-4 -26 -7 -33 0
-4 -26 -7 -34 0
-4 -27 -7 -32 0
-4 -27 -7 -33 0
-4 -27 -7 -34 0
-4 -27 -7 -35 0
-4 -28 -7 -32 0
-4 -28 -7 -33 0
-4 -28 -7 -34 0
-4 -28 -7 -35 0
-4 -28 -7 -36 0
-4 -29 -7 -32 0
-4 -29 -7 -33 0
-4 -29 -7 -34 0
-4 -29 -7 -35 0
-4 -29 -7 -36 0
-4 -29 -7 -37 0
-4 -30 -7 -32 0
-4 -30 -7 -33 0
-4 -30 -7 -34 0
-4 -30 -7 -35 0
-4 -30 -7 -36 0
-4 -30 -7 -37 0
-4 -30 -7 -38 0
-4 -31 -7 -32 0
-4 -31 -7 -33 0
-4 -31 -7 -34 0
-4 -31 -7 -35 0
-4 -31 -7 -36 0
-4 -31 -7 -37 0
-4 -31 -7 -38 0
-5 -24 -8 -32 0
-5 -25 -8 -32 0
-5 -25 -8 -33 0
-5 -26 -8 -32 0
-5 -26 -8 -33 0
-5 -26 -8 -34 0
-5 -27 -8 -32 0
-5 -27 -8 -33 0
-5 -27 -8 -34 0
-5 -27 -8 -35 0
-5 -28 -8 -32 0
-5 -28 -8 -33 0
-5 -28 -8 -34 0
-5 -28 -8 -35 0
-5 -28 -8 -36 0
-5 -29 -8 -32 0
-5 -29 -8 -33 0
-5 -29 -8 -34 0
-5 -29 -8 -35 0
-5 -29 -8 -36 0
-5 -29 -8 -37 0
-5 -30 -8 -32 0
-5 -30 -8 -33 0
-5 -30 -8 -34 0
-5 -30 -8 -35 0
-5 -30 -8 -36 0
-5 -30 -8 -37 0
-5 -30 -8 -38 0
-5 -31 -8 -32 0
-5 -31 -8 -33 0
-5 -31 -8 -34 0
-5 -31 -8 -35 0
-5 -31 -8 -36 0
-5 -31 -8 -37 0
-5 -31 -8 -38 0
-6 -24 -9 -32 0
-6 -25 -9 -32 0
-6 -25 -9 -33 0
-6 -26 -9 -32 0
-6 -26 -9 -33 0
-6 -26 -9 -34 0
-6 -27 -9 -32 0
-6 -27 -9 -33 0
-6 -27 -9 -34 0
-6 -27 -9 -35 0
-6 -28 -9 -32 0
-6 -28 -9 -33 0
-6 -28 -9 -34 0
-6 -28 -9 -35 0
-6 -28 -9 -36 0
-6 -29 -9 -32 0
-6 -29 -9 -33 0
-6 -29 -9 -34 0
-6 -29 -9 -35 0
-6 -29 -9 -36 0
-6 -29 -9 -37 0
-6 -30 -9 -32 0
-6 -30 -9 -33 0
-6 -30 -9 -34 0
-6 -30 -9 -35 0
-6 -30 -9 -36 0
-6 -30 -9 -37 0
-6 -30 -9 -38 0
-6 -31 -9 -32 0
-6 -31 -9 -33 0
-6 -31 -9 -34 0
-6 -31 -9 -35 0
-6 -31 -9 -36 0
-6 -31 -9 -37 0
-6 -31 -9 -38 0
-4 -24 -10 -39 0
-4 -24 -10 -40 0
-4 -24 -10 -41 0
-4 -24 -10 -42 0
-4 -24 -10 -43 0
-4 -25 -10 -40 0
-4 -25 -10 -41 0
-4 -25 -10 -42 0
-4 -25 -10 -43 0
-4 -25 -10 -44 0
-4 -26 -10 -41 0
-4 -26 -10 -42 0
-4 -26 -10 -43 0
-4 -26 -10 -44 0
-4 -26 -10 -45 0
-4 -27 -10 -42 0
-4 -27 -10 -43 0
-4 -27 -10 -44 0
-4 -27 -10 -45 0
-4 -28 -10 -43 0
-4 -28 -10 -44 0
-4 -28 -10 -45 0
-4 -29 -10 -44 0
-4 -29 -10 -45 0
-4 -30 -10 -45 0
-5 -24 -11 -39 0
-5 -24 -11 -40 0
-5 -24 -11 -41 0
-5 -24 -11 -42 0
-5 -24 -11 -43 0
-5 -25 -11 -40 0
-5 -25 -11 -41 0
-5 -25 -11 -42 0
-5 -25 -11 -43 0
-5 -25 -11 -44 0
-5 -26 -11 -41 0
-5 -26 -11 -42 0
-5 -26 -11 -43 0
-5 -26 -11 -44 0
-5 -26 -11 -45 0
-5 -27 -11 -42 0
-5 -27 -11 -43 0
-5 -27 -11 -44 0
-5 -27 -11 -45 0
-5 -28 -11 -43 0
-5 -28 -11 -44 0
-5 -28 -11 -45 0
-5 -29 -11 -44 0
-5 -29 -11 -45 0
-5 -30 -11 -45 0
-6 -24 -12 -39 0
-6 -24 -12 -40 0
-6 -24 -12 -41 0
-6 -24 -12 -42 0
-6 -24 -12 -43 0
-6 -25 -12 -40 0
-6 -25 -12 -41 0
-6 -25 -12 -42 0
-6 -25 -12 -43 0
-6 -25 -12 -44 0
-6 -26 -12 -41 0
-6 -26 -12 -42 0
-6 -26 -12 -43 0
-6 -26 -12 -44 0
-6 -26 -12 -45 0
-6 -27 -12 -42 0
-6 -27 -12 -43 0
-6 -27 -12 -44 0
-6 -27 -12 -45 0
-6 -28 -12 -43 0
-6 -28 -12 -44 0
-6 -28 -12 -45 0
-6 -29 -12 -44 0
-6 -29 -12 -45 0
-6 -30 -12 -45 0
-4 -25 -13 -46 0
-4 -26 -13 -46 0
-4 -26 -13 -47 0
-4 -27 -13 -46 0
-4 -27 -13 -47 0
-4 -27 -13 -48 0
-4 -28 -13 -46 0
-4 -28 -13 -47 0
-4 -28 -13 -48 0
-4 -28 -13 -49 0
-4 -29 -13 -46 0
-4 -29 -13 -47 0
-4 -29 -13 -48 0
-4 -29 -13 -49 0
-4 -29 -13 -50 0
-4 -30 -13 -46 0
-4 -30 -13 -47 0
-4 -30 -13 -48 0
-4 -30 -13 -49 0
-4 -30 -13 -50 0
-4 -30 -13 -51 0
-4 -31 -13 -47 0
-4 -31 -13 -48 0
-4 -31 -13 -49 0
-4 -31 -13 -50 0
-4 -31 -13 -51 0
-4 -31 -13 -52 0
-5 -25 -14 -46 0
-5 -26 -14 -46 0
-5 -26 -14 -47 0
-5 -27 -14 -46 0
-5 -27 -14 -47 0
-5 -27 -14 -48 0
-5 -28 -14 -46 0
-5 -28 -14 -47 0
-5 -28 -14 -48 0
-5 -28 -14 -49 0
-5 -29 -14 -46 0
-5 -29 -14 -47 0
-5 -29 -14 -48 0
-5 -29 -14 -49 0
-5 -29 -14 -50 0
-5 -30 -14 -46 0
-5 -30 -14 -47 0
-5 -30 -14 -48 0
-5 -30 -14 -49 0
-5 -30 -14 -50 0
-5 -30 -14 -51 0
-5 -31 -14 -47 0
-5 -31 -14 -48 0
-5 -31 -14 -49 0
-5 -31 -14 -50 0
-5 -31 -14 -51 0
-5 -31 -14 -52 0
-6 -25 -15 -46 0
-6 -26 -15 -46 0
-6 -26 -15 -47 0
-6 -27 -15 -46 0
-6 -27 -15 -47 0
-6 -27 -15 -48 0
-6 -28 -15 -46 0
-6 -28 -15 -47 0
-6 -28 -15 -48 0
-6 -28 -15 -49 0
-6 -29 -15 -46 0
-6 -29 -15 -47 0
-6 -29 -15 -48 0
-6 -29 -15 -49 0
-6 -29 -15 -50 0
-6 -30 -15 -46 0
-6 -30 -15 -47 0
-6 -30 -15 -48 0
-6 -30 -15 -49 0
-6 -30 -15 -50 0
-6 -30 -15 -51 0
-6 -31 -15 -47 0
-6 -31 -15 -48 0
-6 -31 -15 -49 0
-6 -31 -15 -50 0
-6 -31 -15 -51 0
-6 -31 -15 -52 0
-7 -32 -10 -42 0
-7 -32 -10 -43 0
-7 -32 -10 -44 0
-7 -32 -10 -45 0
-7 -33 -10 -43 0
-7 -33 -10 -44 0
-7 -33 -10 -45 0
-7 -34 -10 -44 0
-7 -34 -10 -45 0
-7 -35 -10 -45 0
-8 -32 -11 -42 0
-8 -32 -11 -43 0
-8 -32 -11 -44 0
-8 -32 -11 -45 0
-8 -33 -11 -43 0
-8 -33 -11 -44 0
-8 -33 -11 -45 0
-8 -34 -11 -44 0
-8 -34 -11 -45 0
-8 -35 -11 -45 0
-9 -32 -12 -42 0
-9 -32 -12 -43 0
-9 -32 -12 -44 0
-9 -32 -12 -45 0
-9 -33 -12 -43 0
-9 -33 -12 -44 0
-9 -33 -12 -45 0
-9 -34 -12 -44 0
-9 -34 -12 -45 0
-9 -35 -12 -45 0
-7 -32 -13 -46 0
-7 -32 -13 -47 0
-7 -32 -13 -48 0
-7 -32 -13 -49 0
-7 -33 -13 -46 0
-7 -33 -13 -47 0
-7 -33 -13 -48 0
-7 -33 -13 -49 0
-7 -33 -13 -50 0
-7 -34 -13 -46 0
-7 -34 -13 -47 0
-7 -34 -13 -48 0
-7 -34 -13 -49 0
-7 -34 -13 -50 0
-7 -34 -13 -51 0
-7 -35 -13 -46 0
-7 -35 -13 -47 0
-7 -35 -13 -48 0
-7 -35 -13 -49 0
-7 -35 -13 -50 0
-7 -35 -13 -51 0
-7 -35 -13 -52 0
-7 -36 -13 -47 0
-7 -36 -13 -48 0
-7 -36 -13 -49 0
-7 -36 -13 -50 0
-7 -36 -13 -51 0
-7 -36 -13 -52 0
-7 -37 -13 -48 0
-7 -37 -13 -49 0
-7 -37 -13 -50 0
-7 -37 -13 -51 0
-7 -37 -13 -52 0
-7 -38 -13 -49 0
-7 -38 -13 -50 0
-7 -38 -13 -51 0
-7 -38 -13 -52 0
-8 -32 -14 -46 0
-8 -32 -14 -47 0
-8 -32 -14 -48 0
-8 -32 -14 -49 0
-8 -33 -14 -46 0
-8 -33 -14 -47 0
-8 -33 -14 -48 0
-8 -33 -14 -49 0
-8 -33 -14 -50 0
-8 -34 -14 -46 0
-8 -34 -14 -47 0
-8 -34 -14 -48 0
-8 -34 -14 -49 0
-8 -34 -14 -50 0
-8 -34 -14 -51 0
-8 -35 -14 -46 0
-8 -35 -14 -47 0
-8 -35 -14 -48 0
-8 -35 -14 -49 0
-8 -35 -14 -50 0
-8 -35 -14 -51 0
-8 -35 -14 -52 0
-8 -36 -14 -47 0
-8 -36 -14 -48 0
-8 -36 -14 -49 0
-8 -36 -14 -50 0
-8 -36 -14 -51 0
-8 -36 -14 -52 0
-8 -37 -14 -48 0
-8 -37 -14 -49 0
-8 -37 -14 -50 0
-8 -37 -14 -51 0
-8 -37 -14 -52 0
-8 -38 -14 -49 0
-8 -38 -14 -50 0
-8 -38 -14 -51 0
-8 -38 -14 -52 0
-9 -32 -15 -46 0
-9 -32 -15 -47 0
-9 -32 -15 -48 0
-9 -32 -15 -49 0
-9 -33 -15 -46 0
-9 -33 -15 -47 0
-9 -33 -15 -48 0
-9 -33 -15 -49 0
-9 -33 -15 -50 0
-9 -34 -15 -46 0
-9 -34 -15 -47 0
-9 -34 -15 -48 0
-9 -34 -15 -49 0
-9 -34 -15 -50 0
-9 -34 -15 -51 0
-9 -35 -15 -46 0
-9 -35 -15 -47 0
-9 -35 -15 -48 0
-9 -35 -15 -49 0
-9 -35 -15 -50 0
-9 -35 -15 -51 0
-9 -35 -15 -52 0
-9 -36 -15 -47 0
-9 -36 -15 -48 0
-9 -36 -15 -49 0
-9 -36 -15 -50 0
-9 -36 -15 -51 0
-9 -36 -15 -52 0
-9 -37 -15 -48 0
-9 -37 -15 -49 0
-9 -37 -15 -50 0
-9 -37 -15 -51 0
-9 -37 -15 -52 0
-9 -38 -15 -49 0
-9 -38 -15 -50 0
-9 -38 -15 -51 0
-9 -38 -15 -52 0
-10 -43 -13 -46 0
-10 -44 -13 -46 0
-10 -44 -13 -47 0
-10 -45 -13 -46 0
-10 -45 -13 -47 0
-10 -45 -13 -48 0
-11 -43 -14 -46 0
-11 -44 -14 -46 0
-11 -44 -14 -47 0
-11 -45 -14 -46 0
-11 -45 -14 -47 0
-11 -45 -14 -48 0
-12 -43 -15 -46 0
-12 -44 -15 -46 0
-12 -44 -15 -47 0
-12 -45 -15 -46 0
-12 -45 -15 -47 0
-12 -45 -15 -48 0
